Input: ticf-13crafb.prec25.dzn
============================================================
Total Runtime: 10.5875 seconds
Input parsing: 0.0016 seconds
Constraint building: 2.1096 seconds
MaxSAT solving: 6.3659 seconds
============================================================

Total variables: 527367
Total clauses: 892153
MaxSAT found with cost: 0
NO SOLUTION FOUND
